



10 10
8 4 6 9 2 15 7 4 1 15 5 16 4 18 3 13 9 7 0 2
4 3 2 18 1 3 7 2 8 4 9 14 6 13 5 16 3 14 0 13
0 3 2 4 8 19 9 11 6 11 5 12 3 4 1 11 4 4 7 1
6 13 4 6 5 11 8 12 3 11 0 18 7 19 1 2 2 3 9 15
7 15 1 18 9 13 2 4 0 15 8 16 5 10 3 1 6 5 4 3
6 12 3 10 1 18 8 9 5 16 9 16 4 11 2 18 7 5 0 7
5 14 4 19 8 7 3 17 7 18 9 6 2 7 6 16 0 3 1 12
6 1 7 1 0 5 1 16 2 17 4 16 8 10 9 19 5 15 3 19
4 11 6 17 2 17 7 8 5 9 1 1 3 18 9 12 0 16 8 17
9 7 7 15 3 3 0 8 4 6 6 10 2 11 1 13 8 5 5 1
